src/falcon_planner/exploration_utils/resource/coverage_path_2.tsp
NAME : coverage_path
TYPE : ATSP
DIMENSION : 4
EDGE_WEIGHT_TYPE : EXPLICIT
EDGE_WEIGHT_FORMAT : FULL_MATRIX
EDGE_WEIGHT_SECTION
0 2878 2870 7054 
0 0 100000 1928 
0 100000 0 140000 
0 1928 140000 0 
EOF