src/falcon_planner/exploration_utils/resource/coverage_path_2.txt
NAME : coverage_path.3599.tour
COMMENT : Length = 3599
COMMENT : Found by LKH [Keld Helsgaun] Sat Jul 26 10:29:10 2025
TYPE : TOUR
DIMENSION : 3
TOUR_SECTION
1
3
2
-1
EOF
